0 0 0 0
0 1 2 10
0 2 0 0
0 3 1 0
0 4 2 1
0 5 0 11
0 6 2 1
0 7 0 1
0 8 0 6
0 9 1 10
0 10 2 17
0 11 1 16
0 12 0 17
0 13 1 20
0 14 2 11
0 15 0 24
0 16 0 17
0 17 1 23
0 18 0 24
0 19 0 13
0 20 0 26
0 21 2 19
0 22 0 29
0 23 0 30
0 24 1 13
0 25 1 24
0 26 0 30
0 27 2 28
0 28 1 36
0 29 0 34
0 30 0 33
0 31 0 37
